20
20
12 6 15
5 13 6 10 9 14
17 2 13 5 19 4 9 11 15 3 16 0 18 14 7 6
14 8
9 6 12 2 1 10 17 8 4 11 16 15 14 7 13
18 0 11 19 15 6 17 8 2 16 4 10 14 12 3 13
14 6 10 11 9 2 12 5 0 8 13 7 1 4 15 17 18 16 19
2 4
17 1 7 0 19 3 6 5 11 9
17 18 19 3
3 6
16 1 11 15 19 9 2 0
17 3 6 9 4 15 8 16 2 1 12 13 0 10
10 0 5 12
5 1 8 10 18
3 1 17 2 4 15 19 18 8 7 16 5 14 13 0 10 6 9 12 11
15 14 7 4 19 6 10 17 5 13 16 12 3 0 11 8 18
7 11 13 5
19 3 7 1 6 11 14 2 0 12 16 5 10 9
16 2 9 8 0 19 11 4 7 1
